gen	cost
1	21054
2	20839
3	20746
4	20627
5	20606
6	20532
7	20477
8	20418
9	20372
10	20282
11	20268
12	20221
13	20185
14	20167
15	20110
16	20054
17	20054
18	20004
19	19945
20	19859
21	19798
22	19763
23	19700
24	19580
25	19573
26	19573
27	19546
28	19507
29	19433
30	19424
31	19387
32	19368
33	19368
34	19324
35	19288
36	19288
37	19231
38	19198
39	19198
40	19195
41	19109
42	19073
43	19056
44	19006
45	18970
46	18964
47	18944
48	18940
49	18911
50	18896

